NAME : set6.3477188.tour
COMMENT : Length = 3477188
TYPE : TOUR
DIMENSION : 81
TOUR_SECTION
1
4
37
42
36
33
43
35
67
12
72
27
38
20
13
22
21
6
57
32
68
60
39
26
45
77
7
25
53
74
61
71
58
16
63
66
15
17
31
65
51
49
28
73
62
8
40
10
3
34
47
50
30
76
5
78
48
56
81
69
70
54
9
64
29
46
41
59
24
55
75
2
11
79
14
52
19
23
18
80
44
-1
EOF
